swarm_exploration/utils/lkh_mtsp_solver/resource/amtsp2_2.atsp
NAME : amtsp
TYPE : ATSP
DIMENSION : 8
EDGE_WEIGHT_TYPE : EXPLICIT
EDGE_WEIGHT_FORMAT : FULL_MATRIX
EDGE_WEIGHT_SECTION
100000 -100000 100000 100000 100000 100000 100000 100000 
100000 100000 817 1747 1064 -194 1094 -86 
0 0 100000 -270 554 376 311 199 
0 0 -270 100000 469 475 216 310 
0 0 554 469 100000 -245 -246 -146 
0 0 376 475 -245 100000 -213 -309 
0 0 311 216 -246 -213 100000 -265 
0 0 199 310 -146 -309 -265 100000 
