swarm_exploration/utils/lkh_mtsp_solver/resource/amtsp2_2.tour
NAME : amtsp.-98507.tour
COMMENT : Length = -98507
COMMENT : Found by LKH [Keld Helsgaun] Mon Jan 15 15:10:42 2024
TYPE : TOUR
DIMENSION : 3
TOUR_SECTION
1
2
3
-1
EOF
